p cnf 60 722
1 2 3 0
4 5 6 0
7 8 9 0
10 11 12 0
13 14 15 0
16 17 18 0
19 20 21 0
22 23 24 0
25 26 27 0
28 29 30 0
31 32 33 0
34 35 36 0
37 38 39 0
40 41 42 0
43 44 45 0
46 47 48 0
49 50 51 0
52 53 54 0
55 56 57 0
58 59 60 0
-1 -2 0
-1 -3 0
-2 -3 0
-4 -5 0
-4 -6 0
-5 -6 0
-7 -8 0
-7 -9 0
-8 -9 0
-10 -11 0
-10 -12 0
-11 -12 0
-13 -14 0
-13 -15 0
-14 -15 0
-16 -17 0
-16 -18 0
-17 -18 0
-19 -20 0
-19 -21 0
-20 -21 0
-22 -23 0
-22 -24 0
-23 -24 0
-25 -26 0
-25 -27 0
-26 -27 0
-28 -29 0
-28 -30 0
-29 -30 0
-31 -32 0
-31 -33 0
-32 -33 0
-34 -35 0
-34 -36 0
-35 -36 0
-37 -38 0
-37 -39 0
-38 -39 0
-40 -41 0
-40 -42 0
-41 -42 0
-43 -44 0
-43 -45 0
-44 -45 0
-46 -47 0
-46 -48 0
-47 -48 0
-49 -50 0
-49 -51 0
-50 -51 0
-52 -53 0
-52 -54 0
-53 -54 0
-55 -56 0
-55 -57 0
-56 -57 0
-58 -59 0
-58 -60 0
-59 -60 0
-1 -4 0
-1 -7 0
-1 -13 0
-1 -16 0
-1 -19 0
-1 -22 0
-1 -25 0
-1 -28 0
-1 -31 0
-1 -37 0
-1 -52 0
-1 -58 0
-4 -1 0
-4 -7 0
-4 -13 0
-4 -19 0
-4 -28 0
-4 -34 0
-4 -37 0
-4 -43 0
-4 -46 0
-7 -1 0
-7 -4 0
-7 -16 0
-7 -22 0
-7 -25 0
-7 -31 0
-7 -34 0
-7 -49 0
-7 -52 0
-7 -55 0
-7 -58 0
-10 -16 0
-10 -19 0
-10 -22 0
-10 -28 0
-10 -34 0
-10 -40 0
-10 -43 0
-10 -49 0
-10 -55 0
-13 -1 0
-13 -4 0
-13 -16 0
-13 -22 0
-13 -25 0
-13 -28 0
-13 -43 0
-13 -49 0
-13 -52 0
-13 -55 0
-16 -1 0
-16 -7 0
-16 -10 0
-16 -13 0
-16 -25 0
-16 -28 0
-16 -40 0
-16 -52 0
-16 -55 0
-19 -1 0
-19 -4 0
-19 -10 0
-19 -25 0
-19 -28 0
-19 -34 0
-19 -37 0
-19 -40 0
-19 -43 0
-19 -55 0
-19 -58 0
-22 -1 0
-22 -7 0
-22 -10 0
-22 -13 0
-22 -31 0
-22 -34 0
-22 -46 0
-22 -49 0
-22 -52 0
-22 -55 0
-22 -58 0
-25 -1 0
-25 -7 0
-25 -13 0
-25 -16 0
-25 -19 0
-25 -28 0
-25 -31 0
-25 -34 0
-25 -37 0
-25 -40 0
-25 -46 0
-28 -1 0
-28 -4 0
-28 -10 0
-28 -13 0
-28 -16 0
-28 -19 0
-28 -25 0
-28 -31 0
-28 -43 0
-28 -58 0
-31 -1 0
-31 -7 0
-31 -22 0
-31 -25 0
-31 -28 0
-31 -37 0
-31 -40 0
-31 -43 0
-31 -46 0
-31 -49 0
-31 -52 0
-31 -55 0
-31 -58 0
-34 -4 0
-34 -7 0
-34 -10 0
-34 -19 0
-34 -22 0
-34 -25 0
-34 -43 0
-34 -46 0
-34 -49 0
-34 -58 0
-37 -1 0
-37 -4 0
-37 -19 0
-37 -25 0
-37 -31 0
-37 -40 0
-37 -43 0
-37 -46 0
-37 -49 0
-37 -52 0
-37 -55 0
-37 -58 0
-40 -10 0
-40 -16 0
-40 -19 0
-40 -25 0
-40 -31 0
-40 -37 0
-40 -43 0
-40 -46 0
-40 -49 0
-40 -52 0
-40 -55 0
-40 -58 0
-43 -4 0
-43 -10 0
-43 -13 0
-43 -19 0
-43 -28 0
-43 -31 0
-43 -34 0
-43 -37 0
-43 -40 0
-43 -49 0
-43 -52 0
-43 -55 0
-46 -4 0
-46 -22 0
-46 -25 0
-46 -31 0
-46 -34 0
-46 -37 0
-46 -40 0
-46 -49 0
-46 -55 0
-46 -58 0
-49 -7 0
-49 -10 0
-49 -13 0
-49 -22 0
-49 -31 0
-49 -34 0
-49 -37 0
-49 -40 0
-49 -43 0
-49 -46 0
-52 -1 0
-52 -7 0
-52 -13 0
-52 -16 0
-52 -22 0
-52 -31 0
-52 -37 0
-52 -40 0
-52 -43 0
-52 -58 0
-55 -7 0
-55 -10 0
-55 -13 0
-55 -16 0
-55 -19 0
-55 -22 0
-55 -31 0
-55 -37 0
-55 -40 0
-55 -43 0
-55 -46 0
-58 -1 0
-58 -7 0
-58 -19 0
-58 -22 0
-58 -28 0
-58 -31 0
-58 -34 0
-58 -37 0
-58 -40 0
-58 -46 0
-58 -52 0
-2 -5 0
-2 -8 0
-2 -14 0
-2 -17 0
-2 -20 0
-2 -23 0
-2 -26 0
-2 -29 0
-2 -32 0
-2 -38 0
-2 -53 0
-2 -59 0
-5 -2 0
-5 -8 0
-5 -14 0
-5 -20 0
-5 -29 0
-5 -35 0
-5 -38 0
-5 -44 0
-5 -47 0
-8 -2 0
-8 -5 0
-8 -17 0
-8 -23 0
-8 -26 0
-8 -32 0
-8 -35 0
-8 -50 0
-8 -53 0
-8 -56 0
-8 -59 0
-11 -17 0
-11 -20 0
-11 -23 0
-11 -29 0
-11 -35 0
-11 -41 0
-11 -44 0
-11 -50 0
-11 -56 0
-14 -2 0
-14 -5 0
-14 -17 0
-14 -23 0
-14 -26 0
-14 -29 0
-14 -44 0
-14 -50 0
-14 -53 0
-14 -56 0
-17 -2 0
-17 -8 0
-17 -11 0
-17 -14 0
-17 -26 0
-17 -29 0
-17 -41 0
-17 -53 0
-17 -56 0
-20 -2 0
-20 -5 0
-20 -11 0
-20 -26 0
-20 -29 0
-20 -35 0
-20 -38 0
-20 -41 0
-20 -44 0
-20 -56 0
-20 -59 0
-23 -2 0
-23 -8 0
-23 -11 0
-23 -14 0
-23 -32 0
-23 -35 0
-23 -47 0
-23 -50 0
-23 -53 0
-23 -56 0
-23 -59 0
-26 -2 0
-26 -8 0
-26 -14 0
-26 -17 0
-26 -20 0
-26 -29 0
-26 -32 0
-26 -35 0
-26 -38 0
-26 -41 0
-26 -47 0
-29 -2 0
-29 -5 0
-29 -11 0
-29 -14 0
-29 -17 0
-29 -20 0
-29 -26 0
-29 -32 0
-29 -44 0
-29 -59 0
-32 -2 0
-32 -8 0
-32 -23 0
-32 -26 0
-32 -29 0
-32 -38 0
-32 -41 0
-32 -44 0
-32 -47 0
-32 -50 0
-32 -53 0
-32 -56 0
-32 -59 0
-35 -5 0
-35 -8 0
-35 -11 0
-35 -20 0
-35 -23 0
-35 -26 0
-35 -44 0
-35 -47 0
-35 -50 0
-35 -59 0
-38 -2 0
-38 -5 0
-38 -20 0
-38 -26 0
-38 -32 0
-38 -41 0
-38 -44 0
-38 -47 0
-38 -50 0
-38 -53 0
-38 -56 0
-38 -59 0
-41 -11 0
-41 -17 0
-41 -20 0
-41 -26 0
-41 -32 0
-41 -38 0
-41 -44 0
-41 -47 0
-41 -50 0
-41 -53 0
-41 -56 0
-41 -59 0
-44 -5 0
-44 -11 0
-44 -14 0
-44 -20 0
-44 -29 0
-44 -32 0
-44 -35 0
-44 -38 0
-44 -41 0
-44 -50 0
-44 -53 0
-44 -56 0
-47 -5 0
-47 -23 0
-47 -26 0
-47 -32 0
-47 -35 0
-47 -38 0
-47 -41 0
-47 -50 0
-47 -56 0
-47 -59 0
-50 -8 0
-50 -11 0
-50 -14 0
-50 -23 0
-50 -32 0
-50 -35 0
-50 -38 0
-50 -41 0
-50 -44 0
-50 -47 0
-53 -2 0
-53 -8 0
-53 -14 0
-53 -17 0
-53 -23 0
-53 -32 0
-53 -38 0
-53 -41 0
-53 -44 0
-53 -59 0
-56 -8 0
-56 -11 0
-56 -14 0
-56 -17 0
-56 -20 0
-56 -23 0
-56 -32 0
-56 -38 0
-56 -41 0
-56 -44 0
-56 -47 0
-59 -2 0
-59 -8 0
-59 -20 0
-59 -23 0
-59 -29 0
-59 -32 0
-59 -35 0
-59 -38 0
-59 -41 0
-59 -47 0
-59 -53 0
-3 -6 0
-3 -9 0
-3 -15 0
-3 -18 0
-3 -21 0
-3 -24 0
-3 -27 0
-3 -30 0
-3 -33 0
-3 -39 0
-3 -54 0
-3 -60 0
-6 -3 0
-6 -9 0
-6 -15 0
-6 -21 0
-6 -30 0
-6 -36 0
-6 -39 0
-6 -45 0
-6 -48 0
-9 -3 0
-9 -6 0
-9 -18 0
-9 -24 0
-9 -27 0
-9 -33 0
-9 -36 0
-9 -51 0
-9 -54 0
-9 -57 0
-9 -60 0
-12 -18 0
-12 -21 0
-12 -24 0
-12 -30 0
-12 -36 0
-12 -42 0
-12 -45 0
-12 -51 0
-12 -57 0
-15 -3 0
-15 -6 0
-15 -18 0
-15 -24 0
-15 -27 0
-15 -30 0
-15 -45 0
-15 -51 0
-15 -54 0
-15 -57 0
-18 -3 0
-18 -9 0
-18 -12 0
-18 -15 0
-18 -27 0
-18 -30 0
-18 -42 0
-18 -54 0
-18 -57 0
-21 -3 0
-21 -6 0
-21 -12 0
-21 -27 0
-21 -30 0
-21 -36 0
-21 -39 0
-21 -42 0
-21 -45 0
-21 -57 0
-21 -60 0
-24 -3 0
-24 -9 0
-24 -12 0
-24 -15 0
-24 -33 0
-24 -36 0
-24 -48 0
-24 -51 0
-24 -54 0
-24 -57 0
-24 -60 0
-27 -3 0
-27 -9 0
-27 -15 0
-27 -18 0
-27 -21 0
-27 -30 0
-27 -33 0
-27 -36 0
-27 -39 0
-27 -42 0
-27 -48 0
-30 -3 0
-30 -6 0
-30 -12 0
-30 -15 0
-30 -18 0
-30 -21 0
-30 -27 0
-30 -33 0
-30 -45 0
-30 -60 0
-33 -3 0
-33 -9 0
-33 -24 0
-33 -27 0
-33 -30 0
-33 -39 0
-33 -42 0
-33 -45 0
-33 -48 0
-33 -51 0
-33 -54 0
-33 -57 0
-33 -60 0
-36 -6 0
-36 -9 0
-36 -12 0
-36 -21 0
-36 -24 0
-36 -27 0
-36 -45 0
-36 -48 0
-36 -51 0
-36 -60 0
-39 -3 0
-39 -6 0
-39 -21 0
-39 -27 0
-39 -33 0
-39 -42 0
-39 -45 0
-39 -48 0
-39 -51 0
-39 -54 0
-39 -57 0
-39 -60 0
-42 -12 0
-42 -18 0
-42 -21 0
-42 -27 0
-42 -33 0
-42 -39 0
-42 -45 0
-42 -48 0
-42 -51 0
-42 -54 0
-42 -57 0
-42 -60 0
-45 -6 0
-45 -12 0
-45 -15 0
-45 -21 0
-45 -30 0
-45 -33 0
-45 -36 0
-45 -39 0
-45 -42 0
-45 -51 0
-45 -54 0
-45 -57 0
-48 -6 0
-48 -24 0
-48 -27 0
-48 -33 0
-48 -36 0
-48 -39 0
-48 -42 0
-48 -51 0
-48 -57 0
-48 -60 0
-51 -9 0
-51 -12 0
-51 -15 0
-51 -24 0
-51 -33 0
-51 -36 0
-51 -39 0
-51 -42 0
-51 -45 0
-51 -48 0
-54 -3 0
-54 -9 0
-54 -15 0
-54 -18 0
-54 -24 0
-54 -33 0
-54 -39 0
-54 -42 0
-54 -45 0
-54 -60 0
-57 -9 0
-57 -12 0
-57 -15 0
-57 -18 0
-57 -21 0
-57 -24 0
-57 -33 0
-57 -39 0
-57 -42 0
-57 -45 0
-57 -48 0
-60 -3 0
-60 -9 0
-60 -21 0
-60 -24 0
-60 -30 0
-60 -33 0
-60 -36 0
-60 -39 0
-60 -42 0
-60 -48 0
-60 -54 0
